Maximize
 obj: 0 X1
Subject To
 c1:
  + 1 X177 + 1 X128
  <= 1
 c2:
  + 1 X80 + 1 X165 + 1 X33 + 1 X30 + 1 X109 + 1 X181 + 1 X51 + 1 X167
  + 1 X185 + 1 X11 + 1 X79 + 1 X113 + 1 X117 + 1 X65 + 1 X125 + 1 X134
  + 1 X195 + 1 X178 + 1 X177 + 1 X56
  <= 1
 c3:
  + 1 X15 + 1 X174 + 1 X116 + 1 X69 + 1 X50 + 1 X140 + 1 X34
  <= 1
 c4:
  + 1 X52 + 1 X104 + 1 X92 + 1 X127 + 1 X141 + 1 X30 + 1 X80 + 1 X6
  + 1 X166 + 1 X181 + 1 X118 + 1 X2 + 1 X81 + 1 X163 + 1 X156 + 1 X169
  + 1 X65 + 1 X38 + 1 X41
  <= 1
 c5:
  + 1 X59 + 1 X154 + 1 X86 + 1 X151 + 1 X141 + 1 X36 + 1 X119 + 1 X133
  + 1 X21 + 1 X100 + 1 X16 + 1 X74 + 1 X132 + 1 X128 + 1 X149
  <= 1
 c6:
  + 1 X184 + 1 X160 + 1 X114 + 1 X101 + 1 X128 + 1 X59 + 1 X166 + 1 X68
  + 1 X116 + 1 X108 + 1 X57 + 1 X150 + 1 X190 + 1 X138 + 1 X82
  <= 1
 c7:
  + 1 X53 + 1 X25 + 1 X151 + 1 X64 + 1 X196 + 1 X111 + 1 X94 + 1 X136
  + 1 X143 + 1 X139 + 1 X141 + 1 X180 + 1 X81
  <= 1
 c8:
  + 1 X5 + 1 X102 + 1 X180 + 1 X54 + 1 X174 + 1 X13
  <= 1
 c9:
  + 1 X72 + 1 X18 + 1 X54 + 1 X6 + 1 X67 + 1 X104
  <= 1
 c10:
  + 1 X119 + 1 X51 + 1 X148 + 1 X66 + 1 X105 + 1 X16 + 1 X76 + 1 X41
  <= 1
 c11:
  + 1 X150 + 1 X28 + 1 X3
  <= 1
 c12:
  + 1 X122 + 1 X55 + 1 X135 + 1 X113 + 1 X22 + 1 X80 + 1 X183 + 1 X68
  + 1 X182 + 1 X109 + 1 X45 + 1 X63 + 1 X10 + 1 X77 + 1 X106 + 1 X6
  + 1 X185 + 1 X20
  <= 1
 c13:
  + 1 X31 + 1 X194 + 1 X180 + 1 X47 + 1 X113 + 1 X139 + 1 X162 + 1 X133
  + 1 X12 + 1 X128 + 1 X146 + 1 X16 + 1 X74 + 1 X161 + 1 X55 + 1 X81
  + 1 X5 + 1 X163 + 1 X85 + 1 X150
  <= 1
 c14:
  + 1 X13 + 1 X17 + 1 X154 + 1 X125 + 1 X92 + 1 X148 + 1 X20 + 1 X94
  + 1 X101 + 1 X150 + 1 X141 + 1 X71 + 1 X135
  <= 1
 c15:
  + 1 X91 + 1 X84 + 1 X9 + 1 X136
  <= 1
 c16:
  + 1 X144 + 1 X96 + 1 X33 + 1 X192 + 1 X157 + 1 X187 + 1 X2
  <= 1
 c17:
  + 1 X93 + 1 X128 + 1 X8 + 1 X135 + 1 X48 + 1 X58 + 1 X69 + 1 X132
  + 1 X139 + 1 X131 + 1 X34 + 1 X167 + 1 X145
  <= 1
 c18:
  + 1 X184 + 1 X149 + 1 X93 + 1 X139 + 1 X160 + 1 X64 + 1 X18
  <= 1
 c19:
  + 1 X189 + 1 X172 + 1 X134 + 1 X15 + 1 X151 + 1 X10 + 1 X96 + 1 X74
  + 1 X178 + 1 X133 + 1 X187 + 1 X165 + 1 X112 + 1 X141 + 1 X44 + 1 X56
  + 1 X158
  <= 1
 c20:
  + 1 X162 + 1 X15 + 1 X151 + 1 X180 + 1 X197 + 1 X150 + 1 X28 + 1 X12
  + 1 X174 + 1 X171 + 1 X39 + 1 X1 + 1 X4 + 1 X23 + 1 X49 + 1 X66
  + 1 X185
  <= 1
 c21:
  + 1 X184 + 1 X119 + 1 X145 + 1 X164 + 1 X123 + 1 X93 + 1 X134
  <= 1
 c22:
  + 1 X61 + 1 X100 + 1 X136 + 1 X96 + 1 X184 + 1 X17 + 1 X147 + 1 X89
  + 1 X49 + 1 X109 + 1 X124 + 1 X176 + 1 X81
  <= 1
 c23:
  + 1 X103 + 1 X94 + 1 X149 + 1 X120 + 1 X46 + 1 X35 + 1 X168 + 1 X15
  + 1 X12 + 1 X86 + 1 X174 + 1 X79 + 1 X165 + 1 X39 + 1 X92 + 1 X99
  + 1 X175
  <= 1
 c24:
  + 1 X59 + 1 X149 + 1 X192 + 1 X130 + 1 X118 + 1 X121 + 1 X148 + 1 X95
  + 1 X114 + 1 X5 + 1 X4 + 1 X137 + 1 X143 + 1 X85 + 1 X142 + 1 X74
  + 1 X87 + 1 X34
  <= 1
 c25:
  + 1 X186 + 1 X141 + 1 X114 + 1 X17 + 1 X152
  <= 1
 c26:
  + 1 X79 + 1 X187 + 1 X35 + 1 X194 + 1 X117 + 1 X168 + 1 X19 + 1 X195
  + 1 X70 + 1 X78
  <= 1
 c27:
  + 1 X68 + 1 X35 + 1 X146 + 1 X142 + 1 X59 + 1 X21 + 1 X10 + 1 X183
  + 1 X4 + 1 X115 + 1 X166 + 1 X148 + 1 X161 + 1 X5 + 1 X40 + 1 X37
  + 1 X49 + 1 X66 + 1 X137 + 1 X127
  <= 1
 c28:
  + 1 X62 + 1 X154 + 1 X11 + 1 X71 + 1 X140 + 1 X142 + 1 X82 + 1 X195
  + 1 X119 + 1 X38 + 1 X183 + 1 X21 + 1 X146 + 1 X197 + 1 X26 + 1 X173
  + 1 X182 + 1 X22 + 1 X24 + 1 X74
  <= 1
 c29:
  + 1 X21 + 1 X82 + 1 X40 + 1 X24 + 1 X35 + 1 X148 + 1 X97 + 1 X31
  + 1 X159 + 1 X48 + 1 X96 + 1 X178 + 1 X133 + 1 X144 + 1 X58 + 1 X105
  + 1 X12 + 1 X75
  <= 1
 c30:
  + 1 X78 + 1 X131 + 1 X73 + 1 X11 + 1 X20 + 1 X110 + 1 X119 + 1 X141
  + 1 X172 + 1 X157 + 1 X23 + 1 X151 + 1 X34 + 1 X133 + 1 X188 + 1 X58
  + 1 X111 + 1 X82 + 1 X170 + 1 X74
  <= 1
 c31:
  + 1 X161 + 1 X185 + 1 X134 + 1 X55
  <= 1
 c32:
  + 1 X185 + 1 X148 + 1 X33 + 1 X187 + 1 X161 + 1 X186 + 1 X200 + 1 X146
  + 1 X194 + 1 X188 + 1 X119 + 1 X1 + 1 X192 + 1 X101 + 1 X152 + 1 X76
  + 1 X156 + 1 X94
  <= 1
 c33:
  + 1 X102 + 1 X125 + 1 X101 + 1 X116 + 1 X16 + 1 X119 + 1 X161 + 1 X64
  + 1 X194 + 1 X173 + 1 X104 + 1 X8 + 1 X110 + 1 X146 + 1 X160 + 1 X95
  <= 1
 c34:
  + 1 X164 + 1 X27 + 1 X68
  <= 1
 c35:
  + 1 X123 + 1 X138 + 1 X146 + 1 X148 + 1 X79 + 1 X190 + 1 X33 + 1 X114
  + 1 X160 + 1 X132
  <= 1
 c36:
  + 1 X37 + 1 X79 + 1 X196 + 1 X132 + 1 X198 + 1 X184 + 1 X175 + 1 X59
  + 1 X46 + 1 X169
  <= 1
 c37:
  + 1 X46 + 1 X93 + 1 X60 + 1 X134 + 1 X75 + 1 X126 + 1 X115 + 1 X193
  + 1 X152 + 1 X173
  <= 1
 c38:
  + 1 X5 + 1 X178
  <= 1
 c39:
  + 1 X153 + 1 X38 + 1 X133 + 1 X184 + 1 X50 + 1 X102 + 1 X154 + 1 X168
  + 1 X49 + 1 X56 + 1 X121 + 1 X134 + 1 X122 + 1 X112 + 1 X199 + 1 X108
  + 1 X90 + 1 X101 + 1 X130
  <= 1
 c40:
  + 1 X174 + 1 X163 + 1 X195
  <= 1
 obj1:
  + 39 X1 + 21 X2 + 87 X3 + 8 X4 + 73 X5 + 86 X6 + 84 X7 + 19 X8
  + 32 X9 + 17 X10 + 96 X11 + 18 X12 + 89 X13 + 54 X14 + 49 X15 + 38 X16
  + 33 X17 + 94 X18 + 30 X19 + 73 X20 + 77 X21 + 45 X22 + 18 X23 + 45 X24
  + 10 X25 + 59 X26 + 56 X27 + 89 X28 + 99 X29 + 51 X30 + 9 X31 + 56 X32
  + 80 X33 + 33 X34 + 82 X35 + 3 X36 + 4 X37 + 65 X38 + 22 X39 + 73 X40
  + 100 X41 + 86 X42 + 30 X43 + 45 X44 + 27 X45 + 35 X46 + 8 X47 + 57 X48
  + 28 X49 + 8 X50 + 51 X51 + 6 X52 + 70 X53 + 38 X54 + 55 X55 + 82 X56
  + 94 X57 + 67 X58 + 7 X59 + 29 X60 + 81 X61 + 77 X62 + 5 X63 + 60 X64
  + 10 X65 + 41 X66 + 71 X67 + 82 X68 + 19 X69 + 8 X70 + 4 X71 + 26 X72
  + 62 X73 + 6 X74 + 68 X75 + 74 X76 + 34 X77 + 91 X78 + 96 X79 + 19 X80
  + 33 X81 + 34 X82 + 17 X83 + 3 X84 + 12 X85 + 93 X86 + 81 X87 + 11 X88
  + 15 X89 + 12 X90 + 55 X91 + 76 X92 + 19 X93 + 52 X94 + 40 X95 + 61 X96
  + 72 X97 + 36 X98 + 8 X99 + 58 X100 + 1 X101 + 95 X102 + 49 X103 + 11 X104
  + 38 X105 + 82 X106 + 67 X107 + 46 X108 + 59 X109 + 38 X110 + 90 X111 + 58 X112
  + 51 X113 + 98 X114 + 80 X115 + 31 X116 + 72 X117 + 45 X118 + 50 X119 + 92 X120
  + 85 X121 + 9 X122 + 42 X123 + 73 X124 + 91 X125 + 59 X126 + 31 X127 + 57 X128
  + 43 X129 + 11 X130 + 21 X131 + 78 X132 + 74 X133 + 98 X134 + 87 X135 + 19 X136
  + 73 X137 + 62 X138 + 64 X139 + 1 X140 + 30 X141 + 49 X142 + 53 X143 + 59 X144
  + 92 X145 + 9 X146 + 63 X147 + 96 X148 + 43 X149 + 46 X150 + 40 X151 + 25 X152
  + 52 X153 + 35 X154 + 50 X155 + 29 X156 + 81 X157 + 9 X158 + 58 X159 + 42 X160
  + 43 X161 + 9 X162 + 86 X163 + 72 X164 + 12 X165 + 85 X166 + 1 X167 + 28 X168
  + 73 X169 + 1 X170 + 39 X171 + 95 X172 + 38 X173 + 71 X174 + 39 X175 + 32 X176
  + 78 X177 + 89 X178 + 46 X179 + 52 X180 + 98 X181 + 42 X182 + 42 X183 + 11 X184
  + 21 X185 + 55 X186 + 73 X187 + 68 X188 + 19 X189 + 16 X190 + 62 X191 + 80 X192
  + 77 X193 + 25 X194 + 53 X195 + 20 X196 + 78 X197 + 96 X198 + 53 X199 + 10 X200
  >= 1
 obj2:
  + 90 X1 + 53 X2 + 90 X3 + 65 X4 + 41 X5 + 30 X6 + 97 X7 + 28 X8
  + 2 X9 + 43 X10 + 19 X11 + 32 X12 + 89 X13 + 90 X14 + 19 X15 + 39 X16
  + 53 X17 + 16 X18 + 73 X19 + 96 X20 + 82 X21 + 96 X22 + 68 X23 + 64 X24
  + 39 X25 + 3 X26 + 35 X27 + 87 X28 + 86 X29 + 43 X30 + 1 X31 + 58 X32
  + 9 X33 + 91 X34 + 43 X35 + 81 X36 + 69 X37 + 64 X38 + 54 X39 + 99 X40
  + 43 X41 + 100 X42 + 9 X43 + 57 X44 + 36 X45 + 62 X46 + 93 X47 + 70 X48
  + 7 X49 + 38 X50 + 64 X51 + 77 X52 + 73 X53 + 88 X54 + 86 X55 + 67 X56
  + 33 X57 + 92 X58 + 1 X59 + 81 X60 + 5 X61 + 98 X62 + 91 X63 + 67 X64
  + 40 X65 + 90 X66 + 68 X67 + 31 X68 + 7 X69 + 58 X70 + 31 X71 + 18 X72
  + 34 X73 + 24 X74 + 44 X75 + 56 X76 + 33 X77 + 97 X78 + 6 X79 + 50 X80
  + 94 X81 + 14 X82 + 42 X83 + 21 X84 + 93 X85 + 73 X86 + 3 X87 + 77 X88
  + 45 X89 + 35 X90 + 26 X91 + 99 X92 + 67 X93 + 41 X94 + 38 X95 + 11 X96
  + 23 X97 + 53 X98 + 65 X99 + 68 X100 + 57 X101 + 76 X102 + 57 X103 + 5 X104
  + 41 X105 + 69 X106 + 24 X107 + 88 X108 + 4 X109 + 8 X110 + 50 X111 + 20 X112
  + 46 X113 + 65 X114 + 67 X115 + 83 X116 + 42 X117 + 24 X118 + 45 X119 + 13 X120
  + 31 X121 + 40 X122 + 79 X123 + 71 X124 + 36 X125 + 71 X126 + 6 X127 + 62 X128
  + 15 X129 + 29 X130 + 16 X131 + 96 X132 + 42 X133 + 54 X134 + 75 X135 + 32 X136
  + 94 X137 + 95 X138 + 21 X139 + 53 X140 + 66 X141 + 64 X142 + 72 X143 + 9 X144
  + 1 X145 + 18 X146 + 64 X147 + 35 X148 + 92 X149 + 5 X150 + 27 X151 + 43 X152
  + 87 X153 + 53 X154 + 93 X155 + 21 X156 + 60 X157 + 63 X158 + 17 X159 + 16 X160
  + 74 X161 + 5 X162 + 11 X163 + 46 X164 + 60 X165 + 83 X166 + 19 X167 + 100 X168
  + 4 X169 + 31 X170 + 64 X171 + 4 X172 + 98 X173 + 23 X174 + 80 X175 + 53 X176
  + 27 X177 + 85 X178 + 90 X179 + 24 X180 + 15 X181 + 94 X182 + 95 X183 + 96 X184
  + 95 X185 + 92 X186 + 42 X187 + 5 X188 + 49 X189 + 12 X190 + 39 X191 + 76 X192
  + 57 X193 + 55 X194 + 28 X195 + 12 X196 + 77 X197 + 91 X198 + 97 X199 + 25 X200
  >= 2
 obj3:
  + 54 X1 + 27 X2 + 57 X3 + 52 X4 + 94 X5 + 77 X6 + 25 X7 + 20 X8
  + 58 X9 + 73 X10 + 44 X11 + 64 X12 + 45 X13 + 88 X14 + 9 X15 + 70 X16
  + 21 X17 + 33 X18 + 85 X19 + 14 X20 + 72 X21 + 11 X22 + 51 X23 + 82 X24
  + 75 X25 + 54 X26 + 32 X27 + 75 X28 + 57 X29 + 14 X30 + 11 X31 + 61 X32
  + 27 X33 + 37 X34 + 41 X35 + 80 X36 + 84 X37 + 30 X38 + 3 X39 + 62 X40
  + 42 X41 + 63 X42 + 75 X43 + 11 X44 + 46 X45 + 45 X46 + 78 X47 + 86 X48
  + 40 X49 + 94 X50 + 8 X51 + 37 X52 + 52 X53 + 87 X54 + 92 X55 + 76 X56
  + 26 X57 + 3 X58 + 74 X59 + 26 X60 + 84 X61 + 11 X62 + 23 X63 + 96 X64
  + 80 X65 + 65 X66 + 32 X67 + 93 X68 + 74 X69 + 85 X70 + 78 X71 + 27 X72
  + 39 X73 + 79 X74 + 49 X75 + 20 X76 + 95 X77 + 51 X78 + 44 X79 + 70 X80
  + 15 X81 + 54 X82 + 48 X83 + 84 X84 + 65 X85 + 96 X86 + 98 X87 + 61 X88
  + 30 X89 + 70 X90 + 17 X91 + 52 X92 + 60 X93 + 2 X94 + 21 X95 + 76 X96
  + 97 X97 + 4 X98 + 30 X99 + 15 X100 + 59 X101 + 45 X102 + 81 X103 + 37 X104
  + 54 X105 + 7 X106 + 12 X107 + 95 X108 + 50 X109 + 50 X110 + 48 X111 + 88 X112
  + 23 X113 + 51 X114 + 27 X115 + 73 X116 + 19 X117 + 56 X118 + 16 X119 + 56 X120
  + 82 X121 + 28 X122 + 59 X123 + 31 X124 + 82 X125 + 70 X126 + 61 X127 + 52 X128
  + 40 X129 + 51 X130 + 95 X131 + 15 X132 + 18 X133 + 23 X134 + 16 X135 + 56 X136
  + 95 X137 + 66 X138 + 83 X139 + 24 X140 + 52 X141 + 58 X142 + 55 X143 + 80 X144
  + 88 X145 + 90 X146 + 72 X147 + 53 X148 + 34 X149 + 44 X150 + 55 X151 + 35 X152
  + 78 X153 + 35 X154 + 48 X155 + 47 X156 + 72 X157 + 67 X158 + 17 X159 + 58 X160
  + 71 X161 + 14 X162 + 66 X163 + 43 X164 + 65 X165 + 2 X166 + 49 X167 + 23 X168
  + 62 X169 + 32 X170 + 21 X171 + 48 X172 + 97 X173 + 76 X174 + 47 X175 + 56 X176
  + 42 X177 + 61 X178 + 37 X179 + 1 X180 + 90 X181 + 79 X182 + 54 X183 + 35 X184
  + 98 X185 + 61 X186 + 41 X187 + 83 X188 + 83 X189 + 32 X190 + 29 X191 + 26 X192
  + 17 X193 + 25 X194 + 36 X195 + 5 X196 + 41 X197 + 86 X198 + 31 X199 + 14 X200
  >= 3
 obj4:
  + 18 X1 + 91 X2 + 62 X3 + 68 X4 + 23 X5 + 14 X6 + 29 X7 + 67 X8
  + 12 X9 + 42 X10 + 97 X11 + 70 X12 + 57 X13 + 8 X14 + 58 X15 + 99 X16
  + 43 X17 + 62 X18 + 85 X19 + 29 X20 + 72 X21 + 32 X22 + 81 X23 + 3 X24
  + 72 X25 + 88 X26 + 93 X27 + 70 X28 + 36 X29 + 11 X30 + 6 X31 + 6 X32
  + 16 X33 + 5 X34 + 13 X35 + 50 X36 + 36 X37 + 67 X38 + 55 X39 + 40 X40
  + 5 X41 + 17 X42 + 24 X43 + 69 X44 + 87 X45 + 20 X46 + 32 X47 + 97 X48
  + 10 X49 + 47 X50 + 83 X51 + 82 X52 + 64 X53 + 5 X54 + 23 X55 + 38 X56
  + 46 X57 + 30 X58 + 78 X59 + 53 X60 + 87 X61 + 55 X62 + 63 X63 + 92 X64
  + 52 X65 + 30 X66 + 81 X67 + 86 X68 + 13 X69 + 88 X70 + 97 X71 + 30 X72
  + 1 X73 + 3 X74 + 24 X75 + 31 X76 + 52 X77 + 69 X78 + 36 X79 + 60 X80
  + 95 X81 + 25 X82 + 81 X83 + 66 X84 + 91 X85 + 12 X86 + 76 X87 + 74 X88
  + 34 X89 + 62 X90 + 51 X91 + 31 X92 + 8 X93 + 86 X94 + 29 X95 + 66 X96
  + 59 X97 + 76 X98 + 4 X99 + 94 X100 + 32 X101 + 54 X102 + 61 X103 + 28 X104
  + 82 X105 + 79 X106 + 27 X107 + 99 X108 + 41 X109 + 91 X110 + 95 X111 + 72 X112
  + 4 X113 + 55 X114 + 7 X115 + 77 X116 + 6 X117 + 47 X118 + 36 X119 + 77 X120
  + 86 X121 + 39 X122 + 84 X123 + 68 X124 + 91 X125 + 32 X126 + 59 X127 + 74 X128
  + 16 X129 + 20 X130 + 15 X131 + 51 X132 + 2 X133 + 21 X134 + 11 X135 + 93 X136
  + 60 X137 + 59 X138 + 66 X139 + 5 X140 + 39 X141 + 74 X142 + 35 X143 + 45 X144
  + 82 X145 + 95 X146 + 82 X147 + 70 X148 + 91 X149 + 81 X150 + 52 X151 + 15 X152
  + 55 X153 + 55 X154 + 50 X155 + 61 X156 + 88 X157 + 66 X158 + 71 X159 + 97 X160
  + 79 X161 + 31 X162 + 9 X163 + 52 X164 + 14 X165 + 57 X166 + 37 X167 + 7 X168
  + 37 X169 + 44 X170 + 21 X171 + 68 X172 + 91 X173 + 4 X174 + 8 X175 + 85 X176
  + 19 X177 + 61 X178 + 16 X179 + 3 X180 + 48 X181 + 17 X182 + 8 X183 + 2 X184
  + 24 X185 + 61 X186 + 27 X187 + 51 X188 + 84 X189 + 88 X190 + 24 X191 + 32 X192
  + 29 X193 + 93 X194 + 25 X195 + 67 X196 + 91 X197 + 3 X198 + 36 X199 + 77 X200
  >= 4
Binary
 X1
 X2
 X3
 X4
 X5
 X6
 X7
 X8
 X9
 X10
 X11
 X12
 X13
 X14
 X15
 X16
 X17
 X18
 X19
 X20
 X21
 X22
 X23
 X24
 X25
 X26
 X27
 X28
 X29
 X30
 X31
 X32
 X33
 X34
 X35
 X36
 X37
 X38
 X39
 X40
 X41
 X42
 X43
 X44
 X45
 X46
 X47
 X48
 X49
 X50
 X51
 X52
 X53
 X54
 X55
 X56
 X57
 X58
 X59
 X60
 X61
 X62
 X63
 X64
 X65
 X66
 X67
 X68
 X69
 X70
 X71
 X72
 X73
 X74
 X75
 X76
 X77
 X78
 X79
 X80
 X81
 X82
 X83
 X84
 X85
 X86
 X87
 X88
 X89
 X90
 X91
 X92
 X93
 X94
 X95
 X96
 X97
 X98
 X99
 X100
 X101
 X102
 X103
 X104
 X105
 X106
 X107
 X108
 X109
 X110
 X111
 X112
 X113
 X114
 X115
 X116
 X117
 X118
 X119
 X120
 X121
 X122
 X123
 X124
 X125
 X126
 X127
 X128
 X129
 X130
 X131
 X132
 X133
 X134
 X135
 X136
 X137
 X138
 X139
 X140
 X141
 X142
 X143
 X144
 X145
 X146
 X147
 X148
 X149
 X150
 X151
 X152
 X153
 X154
 X155
 X156
 X157
 X158
 X159
 X160
 X161
 X162
 X163
 X164
 X165
 X166
 X167
 X168
 X169
 X170
 X171
 X172
 X173
 X174
 X175
 X176
 X177
 X178
 X179
 X180
 X181
 X182
 X183
 X184
 X185
 X186
 X187
 X188
 X189
 X190
 X191
 X192
 X193
 X194
 X195
 X196
 X197
 X198
 X199
 X200
End
